letting np_cars_plus be 63
letting np_classes be 17
letting np_options be 17
letting quantity_range_min be 4
letting quantity_range_delta be 9
letting maxcars_range_min be 3
letting maxcars_range_delta be 3
letting blksize_delta_range_min be 2
letting blksize_delta_range_delta be 3
letting usage_card_min be 17
letting usage_card_delta be 99